17	4
15	20	19	16	
0	0	0	0	0	3	2	3	4	
5	0	3	0	0	3	5	7	13	
1	7	0	0	0	1	11	
6	9	0	0	0	3	6	8	14	
8	0	0	1	0	2	11	16	
125	0	0	0	3	2	11	17	
25	8	0	0	0	3	9	16	17	
100	0	0	1	0	3	10	12	17	
250	0	0	9	0	1	17	
175	0	9	0	0	3	17	17	17	
75	6	0	0	0	1	17	
25	0	0	5	0	1	15	
10	0	0	8	0	3	17	17	17	
4	0	0	2	0	3	17	17	17	
4	0	7	0	0	1	17	
4	0	5	0	0	3	17	17	17	
0	0	0	0	0	0	
